n = 6;

K = 4;

S = 1;

T = 6;

/*EDGES = { <1, 2>, <2, 3>, <3, 6>, <1, 6>, <1, 4>, <4, 5>, <5, 6>, <2, 5>, <4, 3>};*/

cost = { <1, 2, 1>, <2, 3, 2>, <3, 6, 3>, <1, 6, 0>, <1, 4, 4>, <4, 5, 5>, <5, 6, 6>, <2, 5, 7>, <4, 3, 8>};
